6, 7, 22, 23, 30, 52, 65, 68, 73, 77
2, 5, 20, 39, 48, 52, 57, 76, 79, 82
3, 4, 16, 18, 30, 41, 43, 45, 60, 75
6, 14, 49, 55, 61, 62, 65, 67, 76, 97
22, 26, 30, 39, 41, 47, 51, 61, 75, 82
9, 24, 46, 53, 62, 68, 74, 76, 97, 98
8, 12, 13, 16, 20, 44, 69, 73, 78, 83
2, 10, 15, 25, 50, 52, 67, 73, 76, 85
23, 60, 72, 76, 78, 82, 87, 88, 90, 95
17, 25, 27, 29, 30, 64, 74, 85, 99, 100
